TiB2                                    
  0.993343792868526     
     3.0529383938247330    0.0000000000000000   -0.0000000000000000
    -1.5264691969123665    2.6439222052326721   -0.0000000000000000
    -0.0000000000000000    0.0000000000000000    3.2466056514216657
  Ti              B             
     1     2
Direct
     0.0000000000000000    0.0000000000000000    0.0000000000000000
     0.3333333300000021    0.6666666699999979    0.5000000000000000
     0.6666666699999979    0.3333333300000021    0.5000000000000000
 
  0.00000000E+00  0.00000000E+00  0.00000000E+00
  0.00000000E+00  0.00000000E+00  0.00000000E+00
  0.00000000E+00  0.00000000E+00  0.00000000E+00
